(set-info :smt-lib-version 2.6)
(set-logic QF_SNIA)
(set-info :source  | 
Generated by: Johannes Bauer
Generated on: 2026-06-21
Generator: mgm A12 Test Data Generator
Application: ELSTER
Target solver: Z3, CVC5
Script is based on the ELSTER form: capital gains tax registration (A / KapEStInvStG)
Characteristic of the form: easy.
In this script, all terms of the form (* x1 x2 x3 ...) are in the form (* x1 c2 c3 ...),
all terms of the form (div x y) are in the form (div x c) and the symbol mod is exclusively used in the form (mod x c),
where x, y, and x1, x2, x3 ... are free constants and c, c2, c3 ... are terms in the form n or (-n) for some numeral n.
The script starts with the base constraints, which define a valid data set for the corresponding form. After the first (push 1), control constraints follow.
The goal of the control constraints in this script is to fill up a data set with values, after the characteristics of the high test coverage were placed.
number variables: 122, number constraints: 167
"https://www.elster.de/eportal/start?locale=en_US"
"https://www.mgm-tp.com/q12-tdg.html"
"https://a12.ai/public-sector"
|)
(set-info :license "https://creativecommons.org/licenses/by/4.0/")
(set-info :category "industrial")
(declare-fun S1-S () String)
(declare-fun S2-S () String)
(declare-fun B3-F () Bool)
(declare-fun I3-y () Int)
(declare-fun B4-F () Bool)
(declare-fun S4-S () String)
(declare-fun B5-F () Bool)
(declare-fun S6-S () String)
(declare-fun I7-y () Int)
(declare-fun I7-m () Int)
(declare-fun I7-d () Int)
(declare-fun I8-y () Int)
(declare-fun I8-m () Int)
(declare-fun I8-d () Int)
(declare-fun I9-s-y () Int)
(declare-fun I9-s-m () Int)
(declare-fun I9-s-d () Int)
(declare-fun I9-e-y () Int)
(declare-fun I9-e-m () Int)
(declare-fun I9-e-d () Int)
(declare-fun I10-y () Int)
(declare-fun I10-m () Int)
(declare-fun I10-d () Int)
(declare-fun I11-y () Int)
(declare-fun I11-m () Int)
(declare-fun I11-d () Int)
(declare-fun I12 () Int)
(declare-fun I13 () Int)
(declare-fun I14 () Int)
(declare-fun I15 () Int)
(declare-fun I16 () Int)
(declare-fun I17 () Int)
(declare-fun I18-s-y () Int)
(declare-fun I18-s-m () Int)
(declare-fun I18-s-d () Int)
(declare-fun I18-e-y () Int)
(declare-fun I18-e-m () Int)
(declare-fun I18-e-d () Int)
(declare-fun I19-y () Int)
(declare-fun I19-m () Int)
(declare-fun I19-d () Int)
(declare-fun I20-y () Int)
(declare-fun I20-m () Int)
(declare-fun I20-d () Int)
(declare-fun I21 () Int)
(declare-fun I22 () Int)
(declare-fun I23 () Int)
(declare-fun I24 () Int)
(declare-fun I25 () Int)
(declare-fun I26 () Int)
(declare-fun S27-S () String)
(declare-fun I28-y () Int)
(declare-fun I28-m () Int)
(declare-fun I28-d () Int)
(declare-fun I29-y () Int)
(declare-fun I29-m () Int)
(declare-fun I29-d () Int)
(declare-fun I30-y () Int)
(declare-fun I30-m () Int)
(declare-fun I30-d () Int)
(declare-fun I31 () Int)
(declare-fun I32 () Int)
(declare-fun I33 () Int)
(declare-fun I34 () Int)
(declare-fun I35 () Int)
(declare-fun I36 () Int)
(declare-fun I37 () Int)
(declare-fun I38-y () Int)
(declare-fun I38-m () Int)
(declare-fun I38-d () Int)
(declare-fun I39 () Int)
(declare-fun I40 () Int)
(declare-fun I41 () Int)
(declare-fun I42 () Int)
(declare-fun I43 () Int)
(declare-fun I44 () Int)
(declare-fun I45 () Int)
(declare-fun B46-F () Bool)
(declare-fun I46 () Int)
(declare-fun I47 () Int)
(declare-fun I48 () Int)
(declare-fun I49 () Int)
(declare-fun I50 () Int)
(declare-fun B51-F () Bool)
(declare-fun I51-y () Int)
(declare-fun I51-m () Int)
(declare-fun I51-d () Int)
(declare-fun B52-F () Bool)
(declare-fun B53-F () Bool)
(declare-fun I53 () Int)
(declare-fun B54-F () Bool)
(declare-fun I54 () Int)
(declare-fun B55-F () Bool)
(declare-fun B56-F () Bool)
(declare-fun B57-F () Bool)
(declare-fun B58-F () Bool)
(declare-fun B59-F () Bool)
(declare-fun I59 () Int)
(declare-fun B60-F () Bool)
(declare-fun I60 () Int)
(declare-fun B61-F () Bool)
(declare-fun I61 () Int)
(declare-fun B62-F () Bool)
(declare-fun B63-F () Bool)
(declare-fun B64-F () Bool)
(declare-fun I64 () Int)
(declare-fun B65-F () Bool)
(declare-fun I65 () Int)
(declare-fun B66-F () Bool)
(declare-fun B67-F () Bool)
(declare-fun I67 () Int)
(declare-fun B68-F () Bool)
(declare-fun B69-F () Bool)
(declare-fun B70-F () Bool)
(declare-fun B71-F () Bool)
(declare-fun B72-F () Bool)
(declare-fun I72 () Int)
(declare-fun B73-F () Bool)
(declare-fun I74 () Int)
(declare-fun B75-F () Bool)
(declare-fun B76-F () Bool)
(declare-fun B77-F () Bool)
(assert (and (>= I29-y (ite B3-F I3-y 0)) (= I29-y (ite B3-F I3-y 0)) (>= I29-m (str.to_int (ite B4-F S4-S "")))))
(assert (and (or (and (>= I28-y 2022) (or (distinct I28-y 2022) (>= I28-m 10)) (or (distinct I28-y 2022) (distinct I28-m 10) (>= I28-d 1))) (>= (str.to_int (str.substr S27-S 0 4)) 2025)) (or (> I28-y 2022) (and (= I28-y 2022) (> I28-m 10)) (and (= I28-y 2022) (= I28-m 10) (> I28-d 1)) (and (= I28-y 2022) (= I28-m 10) (= I28-d 1))) (or (>= (str.to_int (str.substr S27-S 0 4)) 2025) (distinct (str.to_int (str.substr S27-S 0 4)) 2024) (< (str.to_int (ite B4-F S4-S "")) 5) (> (str.to_int (ite B4-F S4-S "")) 12)) (< (str.to_int (str.substr S27-S 0 4)) 2025) (= (str.to_int (str.substr S27-S 0 4)) 2024)))
(assert (and (>= I28-y 2022) (or (distinct I28-y 2022) (>= I28-m 10)) (or (distinct I28-y 2022) (distinct I28-m 10) (>= I28-d 1)) (< (str.to_int (str.substr S27-S 0 4)) 2025) (or (and (<= I28-y 2022) (or (distinct I28-y 2022) (<= I28-m 10)) (or (distinct I28-y 2022) (distinct I28-m 10) (<= I28-d 1)) (or (distinct I28-y 2022) (distinct I28-m 10) (distinct I28-d 1))) (and (or (>= (str.to_int (str.substr S27-S 0 4)) 2025) (distinct (str.to_int (str.substr S27-S 0 4)) 2024) (< (str.to_int (ite B4-F S4-S "")) 5) (> (str.to_int (ite B4-F S4-S "")) 12)) (or (>= (str.to_int (str.substr S27-S 0 4)) 2025) (= (str.to_int (str.substr S27-S 0 4)) 2024))))))
(assert (and (or (and (>= I28-y 2022) (or (distinct I28-y 2022) (>= I28-m 10)) (or (distinct I28-y 2022) (distinct I28-m 10) (>= I28-d 1))) (>= (str.to_int (str.substr S27-S 0 4)) 2025)) (or (> I28-y 2022) (and (= I28-y 2022) (> I28-m 10)) (and (= I28-y 2022) (= I28-m 10) (> I28-d 1)) (and (= I28-y 2022) (= I28-m 10) (= I28-d 1))) (< (str.to_int (str.substr S27-S 0 4)) 2025) (= (str.to_int (str.substr S27-S 0 4)) 2024) (< (str.to_int (ite B4-F S4-S "")) 5) (<= (str.to_int (ite B4-F S4-S "")) 12) (or (>= (str.to_int (str.substr S27-S 0 4)) 2025) (= (str.to_int (str.substr S27-S 0 4)) 2024))))
(assert (<= (ite (>= (- I48 (div (* I47 55) 10)) 0) (- I48 (div (* I47 55) 10)) (- (- I48 (div (* I47 55) 10)))) 100))
(assert (and (>= I9-s-y (- I9-e-y 1)) (or (distinct I9-s-y (- I9-e-y 1)) (>= I9-s-m I9-e-m)) (= I9-s-y (- I9-e-y 1)) (= I9-s-m I9-e-m) (>= I9-s-d (+ I9-e-d 1))))
(assert (and (>= I18-s-y (- I18-e-y 1)) (or (distinct I18-s-y (- I18-e-y 1)) (>= I18-s-m I18-e-m)) (= I18-s-y (- I18-e-y 1)) (= I18-s-m I18-e-m) (>= I18-s-d (+ I18-e-d 1))))
(assert (not (or B51-F B52-F)))
(assert (= B52-F (or B53-F B54-F)))
(assert (= B75-F (or B76-F B77-F)))
(assert B55-F)
(assert (= B56-F (or B57-F B58-F B59-F B60-F B61-F B62-F B63-F B64-F B65-F B66-F B67-F B68-F B69-F B70-F B71-F B72-F B73-F)))
(assert (ite B53-F (and (<= I53 999999999999) (>= I53 0)) (= I53 0)))
(assert (ite B54-F (and (<= I54 999999999999) (>= I54 0)) (= I54 0)))
(assert (and (<= I49 999999999999) (>= I49 (- 999999999999))))
(assert (and (<= I50 99999999999999) (>= I50 (- 99999999999999))))
(assert (and (<= I31 999999999999) (>= I31 (- 999999999999))))
(assert (and (<= I32 999999999999) (>= I32 (- 999999999999))))
(assert (and (<= I33 99999999999999) (>= I33 (- 99999999999999))))
(assert (and (<= I34 999999999999) (>= I34 (- 999999999999))))
(assert (and (<= I35 999999999999) (>= I35 (- 999999999999))))
(assert (and (<= I36 999999999999) (>= I36 (- 999999999999))))
(assert (and (<= I37 99999999999999) (>= I37 (- 99999999999999))))
(assert (and (<= I39 999999999999) (>= I39 0)))
(assert (and (<= I40 999999999999) (>= I40 0)))
(assert (and (<= I41 99999999999999) (>= I41 0)))
(assert (and (<= I42 999999999999) (>= I42 0)))
(assert (and (<= I43 99999999999999) (>= I43 0)))
(assert (and (<= I44 999999999999) (>= I44 0)))
(assert (and (<= I45 99999999999999) (>= I45 0)))
(assert (ite B46-F (and (<= I46 999999999999) (>= I46 (- 999999999999))) (= I46 0)))
(assert (and (<= I47 999999999999) (>= I47 (- 999999999999))))
(assert (and (<= I48 99999999999999) (>= I48 (- 99999999999999))))
(assert (and (<= I12 999999999999) (>= I12 (- 999999999999))))
(assert (and (<= I13 999999999999) (>= I13 (- 999999999999))))
(assert (and (<= I14 99999999999999) (>= I14 (- 99999999999999))))
(assert (and (<= I15 999999999999) (>= I15 (- 999999999999))))
(assert (and (<= I16 999999999999) (>= I16 (- 999999999999))))
(assert (and (<= I17 999999999999) (>= I17 (- 999999999999))))
(assert (and (<= I21 999999999999) (>= I21 (- 999999999999))))
(assert (and (<= I22 999999999999) (>= I22 (- 999999999999))))
(assert (and (<= I23 99999999999999) (>= I23 (- 99999999999999))))
(assert (and (<= I24 99999999999999) (>= I24 (- 99999999999999))))
(assert (and (<= I25 999999999999) (>= I25 (- 999999999999))))
(assert (and (<= I26 99999999999999) (>= I26 (- 99999999999999))))
(assert (ite B60-F (and (<= I60 99999999999999) (>= I60 (- 9999999999999))) (= I60 0)))
(assert (ite B59-F (and (<= I59 99999999999999) (>= I59 (- 9999999999999))) (= I59 0)))
(assert (ite B57-F true false))
(assert (ite B58-F true false))
(assert (ite B61-F (and (<= I61 99999999999999) (>= I61 (- 9999999999999))) (= I61 0)))
(assert (ite B63-F true false))
(assert (ite B62-F true false))
(assert (ite B64-F (and (<= I64 99999999999999) (>= I64 (- 9999999999999))) (= I64 0)))
(assert (ite B65-F (and (<= I65 99999999999999) (>= I65 (- 9999999999999))) (= I65 0)))
(assert (ite B66-F true false))
(assert (ite B67-F (and (<= I67 99999999999999) (>= I67 (- 9999999999999))) (= I67 0)))
(assert (ite B71-F true false))
(assert (ite B68-F true false))
(assert (ite B69-F true false))
(assert (ite B70-F true false))
(assert (ite B72-F (and (<= I72 99999999999999) (>= I72 (- 9999999999999))) (= I72 0)))
(assert (ite B73-F true false))
(assert (and (<= I74 99999999999999) (>= I74 (- 9999999999999))))
(assert (and (ite B51-F (and (> I51-y 1900) (< I51-y 2100)) (= I51-y 0)) (ite B51-F (and (> I51-m 0) (<= I51-m 12)) (= I51-m 0)) (ite B51-F (and (> I51-d 0) (<= I51-d (ite (or (= I51-m 0) (= I51-m 1) (= I51-m 3) (= I51-m 5) (= I51-m 7) (= I51-m 8) (= I51-m 10) (= I51-m 12)) 31 (ite (or (= I51-m 4) (= I51-m 6) (= I51-m 9) (= I51-m 11)) 30 (ite (= (mod I51-y 4) 0) 29 28))))) (= I51-d 0))))
(assert (ite B3-F (and (> I3-y 1900) (< I3-y 2100)) (= I3-y 0)))
(assert (and (> I8-y 1900) (< I8-y 2100) (> I8-m 0) (<= I8-m 12) (> I8-d 0) (<= I8-d (ite (or (= I8-m 0) (= I8-m 1) (= I8-m 3) (= I8-m 5) (= I8-m 7) (= I8-m 8) (= I8-m 10) (= I8-m 12)) 31 (ite (or (= I8-m 4) (= I8-m 6) (= I8-m 9) (= I8-m 11)) 30 (ite (= (mod I8-y 4) 0) 29 28))))))
(assert (and (> I7-y 1900) (< I7-y 2100) (> I7-m 0) (<= I7-m 12) (> I7-d 0) (<= I7-d (ite (or (= I7-m 0) (= I7-m 1) (= I7-m 3) (= I7-m 5) (= I7-m 7) (= I7-m 8) (= I7-m 10) (= I7-m 12)) 31 (ite (or (= I7-m 4) (= I7-m 6) (= I7-m 9) (= I7-m 11)) 30 (ite (= (mod I7-y 4) 0) 29 28))))))
(assert (and (> I29-y 1900) (< I29-y 2100) (> I29-m 0) (<= I29-m 12) (> I29-d 0) (<= I29-d (ite (or (= I29-m 0) (= I29-m 1) (= I29-m 3) (= I29-m 5) (= I29-m 7) (= I29-m 8) (= I29-m 10) (= I29-m 12)) 31 (ite (or (= I29-m 4) (= I29-m 6) (= I29-m 9) (= I29-m 11)) 30 (ite (= (mod I29-y 4) 0) 29 28))))))
(assert (and (> I28-y 1900) (< I28-y 2100) (> I28-m 0) (<= I28-m 12) (> I28-d 0) (<= I28-d (ite (or (= I28-m 0) (= I28-m 1) (= I28-m 3) (= I28-m 5) (= I28-m 7) (= I28-m 8) (= I28-m 10) (= I28-m 12)) 31 (ite (or (= I28-m 4) (= I28-m 6) (= I28-m 9) (= I28-m 11)) 30 (ite (= (mod I28-y 4) 0) 29 28))))))
(assert (and (> I30-y 1900) (< I30-y 2100) (> I30-m 0) (<= I30-m 12) (> I30-d 0) (<= I30-d (ite (or (= I30-m 0) (= I30-m 1) (= I30-m 3) (= I30-m 5) (= I30-m 7) (= I30-m 8) (= I30-m 10) (= I30-m 12)) 31 (ite (or (= I30-m 4) (= I30-m 6) (= I30-m 9) (= I30-m 11)) 30 (ite (= (mod I30-y 4) 0) 29 28))))))
(assert (and (> I38-y 1900) (< I38-y 2100) (> I38-m 0) (<= I38-m 12) (> I38-d 0) (<= I38-d (ite (or (= I38-m 0) (= I38-m 1) (= I38-m 3) (= I38-m 5) (= I38-m 7) (= I38-m 8) (= I38-m 10) (= I38-m 12)) 31 (ite (or (= I38-m 4) (= I38-m 6) (= I38-m 9) (= I38-m 11)) 30 (ite (= (mod I38-y 4) 0) 29 28))))))
(assert (and (> I11-y 1900) (< I11-y 2100) (> I11-m 0) (<= I11-m 12) (> I11-d 0) (<= I11-d (ite (or (= I11-m 0) (= I11-m 1) (= I11-m 3) (= I11-m 5) (= I11-m 7) (= I11-m 8) (= I11-m 10) (= I11-m 12)) 31 (ite (or (= I11-m 4) (= I11-m 6) (= I11-m 9) (= I11-m 11)) 30 (ite (= (mod I11-y 4) 0) 29 28))))))
(assert (and (> I10-y 1900) (< I10-y 2100) (> I10-m 0) (<= I10-m 12) (> I10-d 0) (<= I10-d (ite (or (= I10-m 0) (= I10-m 1) (= I10-m 3) (= I10-m 5) (= I10-m 7) (= I10-m 8) (= I10-m 10) (= I10-m 12)) 31 (ite (or (= I10-m 4) (= I10-m 6) (= I10-m 9) (= I10-m 11)) 30 (ite (= (mod I10-y 4) 0) 29 28))))))
(assert (or (< I9-s-y I9-e-y) (and (= I9-s-y I9-e-y) (< I9-s-m I9-e-m)) (and (= I9-s-y I9-e-y) (= I9-s-m I9-e-m) (<= I9-s-d I9-e-d))))
(assert (and (>= I9-e-d 1) (<= I9-e-d (ite (or (= I9-e-m 0) (= I9-e-m 1) (= I9-e-m 3) (= I9-e-m 5) (= I9-e-m 7) (= I9-e-m 8) (= I9-e-m 10) (= I9-e-m 12)) 31 (ite (or (= I9-e-m 4) (= I9-e-m 6) (= I9-e-m 9) (= I9-e-m 11)) 30 (ite (= (mod I9-e-y 4) 0) 29 28))))))
(assert (and (>= I9-e-m 1) (<= I9-e-m 12)))
(assert (and (>= I9-e-y 1901) (<= I9-e-y 2099)))
(assert (and (>= I9-s-d 1) (<= I9-s-d (ite (or (= I9-s-m 0) (= I9-s-m 1) (= I9-s-m 3) (= I9-s-m 5) (= I9-s-m 7) (= I9-s-m 8) (= I9-s-m 10) (= I9-s-m 12)) 31 (ite (or (= I9-s-m 4) (= I9-s-m 6) (= I9-s-m 9) (= I9-s-m 11)) 30 (ite (= (mod I9-s-y 4) 0) 29 28))))))
(assert (and (>= I9-s-m 1) (<= I9-s-m 12)))
(assert (and (>= I9-s-y 1901) (<= I9-s-y 2099)))
(assert (and (> I20-y 1900) (< I20-y 2100) (> I20-m 0) (<= I20-m 12) (> I20-d 0) (<= I20-d (ite (or (= I20-m 0) (= I20-m 1) (= I20-m 3) (= I20-m 5) (= I20-m 7) (= I20-m 8) (= I20-m 10) (= I20-m 12)) 31 (ite (or (= I20-m 4) (= I20-m 6) (= I20-m 9) (= I20-m 11)) 30 (ite (= (mod I20-y 4) 0) 29 28))))))
(assert (and (> I19-y 1900) (< I19-y 2100) (> I19-m 0) (<= I19-m 12) (> I19-d 0) (<= I19-d (ite (or (= I19-m 0) (= I19-m 1) (= I19-m 3) (= I19-m 5) (= I19-m 7) (= I19-m 8) (= I19-m 10) (= I19-m 12)) 31 (ite (or (= I19-m 4) (= I19-m 6) (= I19-m 9) (= I19-m 11)) 30 (ite (= (mod I19-y 4) 0) 29 28))))))
(assert (or (< I18-s-y I18-e-y) (and (= I18-s-y I18-e-y) (< I18-s-m I18-e-m)) (and (= I18-s-y I18-e-y) (= I18-s-m I18-e-m) (<= I18-s-d I18-e-d))))
(assert (and (>= I18-e-d 1) (<= I18-e-d (ite (or (= I18-e-m 0) (= I18-e-m 1) (= I18-e-m 3) (= I18-e-m 5) (= I18-e-m 7) (= I18-e-m 8) (= I18-e-m 10) (= I18-e-m 12)) 31 (ite (or (= I18-e-m 4) (= I18-e-m 6) (= I18-e-m 9) (= I18-e-m 11)) 30 (ite (= (mod I18-e-y 4) 0) 29 28))))))
(assert (and (>= I18-e-m 1) (<= I18-e-m 12)))
(assert (and (>= I18-e-y 1901) (<= I18-e-y 2099)))
(assert (and (>= I18-s-d 1) (<= I18-s-d (ite (or (= I18-s-m 0) (= I18-s-m 1) (= I18-s-m 3) (= I18-s-m 5) (= I18-s-m 7) (= I18-s-m 8) (= I18-s-m 10) (= I18-s-m 12)) 31 (ite (or (= I18-s-m 4) (= I18-s-m 6) (= I18-s-m 9) (= I18-s-m 11)) 30 (ite (= (mod I18-s-y 4) 0) 29 28))))))
(assert (and (>= I18-s-m 1) (<= I18-s-m 12)))
(assert (and (>= I18-s-y 1901) (<= I18-s-y 2099)))
(assert (and (> (str.to_int S6-S) 1900) (< (str.to_int S6-S) 2100)))
(assert (and (> (str.to_int S6-S) 1900) (< (str.to_int S6-S) 2100)))
(assert (and (str.in_re S6-S (re.+ (re.range "0" "9"))) (>= (str.len S6-S) 4) (<= (str.len S6-S) 4)))
(assert (and (str.in_re S27-S (re.+ (re.range "0" "9"))) (>= (str.len S27-S) 4) (<= (str.len S27-S) 4)))
(assert (or (= S2-S "0") (= S2-S "1")))
(assert (ite B4-F (or (= S4-S "11") (= S4-S "01") (= S4-S "12") (= S4-S "02") (= S4-S "03") (= S4-S "04") (= S4-S "05") (= S4-S "06") (= S4-S "07") (= S4-S "08") (= S4-S "09") (= S4-S "10")) (= S4-S "")))
(assert (or (= S1-S "2216060427666") (= S1-S "2815094023008") (= S1-S "1060048649864") (= S1-S "2348008413417") (= S1-S "2702024686052") (= S1-S "3207051220872") (= S1-S "1123012960769") (= S1-S "5103096558745") (= S1-S "2632041436639") (= S1-S "3103071321727") (= S1-S "3062087900803") (= S1-S "9170050074951") (= S1-S "4084068125545") (= S1-S "2460083378687") (= S1-S "2189063488000")))
(assert (not (and B54-F B53-F (distinct I53 0) (distinct I54 (div (* I53 15) 100)))))
(assert (not (and B51-F (or (< I51-y 2025) (> I51-y 2025)))))
(assert (not (and (or B77-F B76-F) (not (and B77-F B76-F)))))
(assert (not (distinct I49 (+ I13 I16 I17 I22 I25 I32 I34 I36 I40 I42 I44 I47 (- 1251082)))))
(assert (not (distinct I50 (+ I14 I23 I24 I26 I33 I37 I41 I43 I45 I48 (- 309887642003)))))
(assert (not (and B3-F (or (< I3-y 2025) (> I3-y 2025)))))
(assert (not (or (> I8-y I7-y) (and (= I8-y I7-y) (> I8-m I7-m)) (and (= I8-y I7-y) (= I8-m I7-m) (> I8-d I7-d)))))
(assert (not (or (distinct I7-y (ite B3-F I3-y 0)) (distinct I7-m (str.to_int (ite B4-F S4-S ""))))))
(assert (not (>= (ite (and (>= (str.to_int S6-S) 1) (<= (str.to_int S6-S) 9999)) (+ (- I8-y (str.to_int S6-S)) (ite (or (< (str.to_int S6-S) I8-y) (and (= (str.to_int S6-S) I8-y) (< 5 I8-m)) (and (= (str.to_int S6-S) I8-y) (= 5 I8-m) (< 1 I8-d)) (and (= (str.to_int S6-S) I8-y) (= 5 I8-m) (= 1 I8-d))) (ite (or (< 5 I8-m) (and (= 5 I8-m) (<= 1 I8-d))) 0 (- 1)) (ite (or (> 5 I8-m) (and (= 5 I8-m) (>= 1 I8-d))) 0 1))) 0) 1)))
(assert (not (< I7-y (str.to_int (str.substr S6-S 0 4)))))
(assert (not (> (str.to_int (str.substr S6-S 0 4)) 2025)))
(assert (not (or (< I29-y I28-y) (and (= I29-y I28-y) (< I29-m I28-m)) (and (= I29-y I28-y) (= I29-m I28-m) (< I29-d I28-d)) (and (= I29-y I28-y) (= I29-m I28-m) (= I29-d I28-d)))))
(assert (not (< I29-y (str.to_int (str.substr S27-S 0 4)))))
(assert (not (or (< I29-y I30-y) (and (= I29-y I30-y) (< I29-m I30-m)) (and (= I29-y I30-y) (= I29-m I30-m) (< I29-d I30-d)))))
(assert (not (or (< I29-y (ite B3-F I3-y 0)) (and (= I29-y (ite B3-F I3-y 0)) (< I29-m (str.to_int (ite B4-F S4-S "")))))))
(assert (not (< I30-y 2023)))
(assert (not (distinct I28-y (str.to_int (str.substr S27-S 0 4)))))
(assert (not (or (> I28-y (ite B3-F I3-y 0)) (and (= I28-y (ite B3-F I3-y 0)) (> I28-m (str.to_int (ite B4-F S4-S "")))))))
(assert (not (> (str.to_int (str.substr S27-S 0 4)) 2025)))
(assert (not (or (and (or (< I28-y 2022) (and (= I28-y 2022) (< I28-m 10)) (and (= I28-y 2022) (= I28-m 10) (< I28-d 1))) (< (str.to_int (str.substr S27-S 0 4)) 2025)) (and (or (> I28-y 2022) (and (= I28-y 2022) (> I28-m 10)) (and (= I28-y 2022) (= I28-m 10) (> I28-d 1)) (and (= I28-y 2022) (= I28-m 10) (= I28-d 1))) (or (and (< (str.to_int (str.substr S27-S 0 4)) 2025) (= (str.to_int (str.substr S27-S 0 4)) 2024) (>= (str.to_int (ite B4-F S4-S "")) 5) (<= (str.to_int (ite B4-F S4-S "")) 12)) (and (< (str.to_int (str.substr S27-S 0 4)) 2025) (distinct (str.to_int (str.substr S27-S 0 4)) 2024)))))))
(assert (not (or (and (= I28-y (ite B3-F I3-y 0)) (< I28-m (- (str.to_int (ite B4-F S4-S "")) 4))) (and (distinct I28-y (ite B3-F I3-y 0)) (< I28-y (- (ite B3-F I3-y 0) 1))) (and (distinct I28-y (ite B3-F I3-y 0)) (= I28-y (- (ite B3-F I3-y 0) 1)) (> I28-m 8) (< I28-m (- (+ (str.to_int (ite B4-F S4-S "")) 12) 4))) (and (distinct I28-y (ite B3-F I3-y 0)) (= I28-y (- (ite B3-F I3-y 0) 1)) (<= I28-m 8)))))
(assert (not (or (and (distinct I31 0) (= I32 0)) (= I34 0) (and (distinct I35 0) (= I36 0)))))
(assert (not (> (ite (>= (- I33 (div (* I32 55) 10)) 0) (- I33 (div (* I32 55) 10)) (- (- I33 (div (* I32 55) 10)))) 100)))
(assert (not (or (> (* I32 100) (+ (* I31 15) 100)) (> (* I34 100) 85) (> (* I36 100) (+ (* I35 15) 100)))))
(assert (not (> (ite (>= (- (- 9835) (div (* I34 55) 10)) 0) (- (- 9835) (div (* I34 55) 10)) (- (- (- 9835) (div (* I34 55) 10)))) 100)))
(assert (not (> (ite (>= (- I37 (div (* I36 55) 10)) 0) (- I37 (div (* I36 55) 10)) (- (- I37 (div (* I36 55) 10)))) 100)))
(assert (not (or (and (distinct I39 0) (= I40 0)) (= I42 0) (= I44 0))))
(assert (not (> (ite (>= (- I41 (div (* I40 55) 10)) 0) (- I41 (div (* I40 55) 10)) (- (- I41 (div (* I40 55) 10)))) 100)))
(assert (not (or (> (* I40 100) (+ (* I39 15) 100)) (> (* I42 100) 115) (> (* I44 100) 115))))
(assert (not (> (ite (>= (- I43 (div (* I42 55) 10)) 0) (- I43 (div (* I42 55) 10)) (- (- I43 (div (* I42 55) 10)))) 100)))
(assert (not (> (ite (>= (- I45 (div (* I44 55) 10)) 0) (- I45 (div (* I44 55) 10)) (- (- I45 (div (* I44 55) 10)))) 100)))
(assert (not (and B46-F (distinct I46 0) (= I47 0))))
(assert (not (> (ite (>= (- I48 (div (* I47 55) 10)) 0) (- I48 (div (* I47 55) 10)) (- (- I48 (div (* I47 55) 10)))) 100)))
(assert (not (> (* I47 100) (+ (* I46 15) 100))))
(assert (not (or (> I38-y (ite B3-F I3-y 0)) (and (> I38-m (str.to_int (ite B4-F S4-S ""))) (= I38-y (ite B3-F I3-y 0))))))
(assert (not (or (> I11-y I10-y) (and (= I11-y I10-y) (> I11-m I10-m)) (and (= I11-y I10-y) (= I11-m I10-m) (> I11-d I10-d)))))
(assert (not (or (distinct I10-y (ite B3-F I3-y 0)) (distinct I10-m (str.to_int (ite B4-F S4-S ""))))))
(assert (not (< I10-y 2025)))
(assert (not (or (and (distinct I12 0) (= I13 0)) (and (distinct I15 0) (= I16 0)) (= I17 0))))
(assert (not (> (ite (>= (- I14 (div (* I13 55) 10)) 0) (- I14 (div (* I13 55) 10)) (- (- I14 (div (* I13 55) 10)))) 100)))
(assert (not (or (> (* I13 100) (+ (* I12 15) 100)) (> (* I16 100) (+ (* I15 15) 100)) (> (* I17 100) (- 111903067580)))))
(assert (not (> (ite (>= (- 66561843982 (div (* I16 55) 10)) 0) (- 66561843982 (div (* I16 55) 10)) (- (- 66561843982 (div (* I16 55) 10)))) 100)))
(assert (not (> (ite (>= (- (- 376449476149) (div (* I17 55) 10)) 0) (- (- 376449476149) (div (* I17 55) 10)) (- (- (- 376449476149) (div (* I17 55) 10)))) 100)))
(assert (not (or (> I9-e-y I10-y) (and (= I9-e-y I10-y) (> I9-e-m I10-m)) (and (= I9-e-y I10-y) (= I9-e-m I10-m) (> I9-e-d I10-d)))))
(assert (not (or (< I9-s-y (- I9-e-y 1)) (and (= I9-s-y (- I9-e-y 1)) (< I9-s-m I9-e-m)) (and (= I9-s-y (- I9-e-y 1)) (= I9-s-m I9-e-m) (< I9-s-d (+ I9-e-d 1))))))
(assert (not (or (> I20-y I19-y) (and (= I20-y I19-y) (> I20-m I19-m)) (and (= I20-y I19-y) (= I20-m I19-m) (> I20-d I19-d)))))
(assert (not (or (distinct I19-y (ite B3-F I3-y 0)) (distinct I19-m (str.to_int (ite B4-F S4-S ""))))))
(assert (not (< I19-y 2025)))
(assert (not (or (and (distinct I21 0) (= I22 0)) (= I25 0))))
(assert (not (> (ite (>= (- I23 (div (* I22 55) 10)) 0) (- I23 (div (* I22 55) 10)) (- (- I23 (div (* I22 55) 10)))) 100)))
(assert (not (or (> (* I22 100) (+ (* I21 15) 100)) (> (* I25 100) (- 14999999999885)))))
(assert (not (> (ite (>= (- I24 (- 6880946)) 0) (- I24 (- 6880946)) (- (- I24 (- 6880946)))) 100)))
(assert (not (> (ite (>= (- I26 (div (* I25 55) 10)) 0) (- I26 (div (* I25 55) 10)) (- (- I26 (div (* I25 55) 10)))) 100)))
(assert (not (or (> I18-e-y I19-y) (and (= I18-e-y I19-y) (> I18-e-m I19-m)) (and (= I18-e-y I19-y) (= I18-e-m I19-m) (> I18-e-d I19-d)))))
(assert (not (or (< I18-s-y (- I18-e-y 1)) (and (= I18-s-y (- I18-e-y 1)) (< I18-s-m I18-e-m)) (and (= I18-s-y (- I18-e-y 1)) (= I18-s-m I18-e-m) (< I18-s-d (+ I18-e-d 1))))))
(assert (not B51-F))
(assert (and B3-F B4-F))
(assert (not (and B3-F B4-F (or (< 2026 I3-y) (and (= 2026 I3-y) (<= 6 (str.to_int S4-S)))))))
(assert (not (and B3-F B4-F (or (< 2027 I3-y) (and (= 2027 I3-y) (<= 6 (str.to_int S4-S)))))))
(assert (not (= S2-S "0")))
(assert (not (= "1123012960769" S1-S)))
(assert (not (and (or B60-F B59-F B61-F B57-F B58-F B62-F B63-F B64-F B65-F B66-F B73-F B67-F B70-F B71-F B68-F B69-F B72-F) (distinct I74 (+ I60 I59 I61 I64 I65 I67 I72 129999999999693)))))
(assert (not (and (not B60-F) (not B59-F) (not B61-F) (not B57-F) (not B58-F) (not B62-F) (not B63-F) (not B64-F) (not B65-F) (not B66-F) (not B73-F) (not B67-F) (not B70-F) (not B71-F) (not B68-F) (not B69-F) (not B72-F))))
(assert (not (distinct I74 (* I49 100))))
(push 1)
(assert B4-F)
(set-info :status sat)
(check-sat)
(push 1)
(assert B5-F)
(set-info :status sat)
(check-sat)
(push 1)
(assert B62-F)
(set-info :status sat)
(check-sat)
(push 1)
(assert B63-F)
(set-info :status sat)
(check-sat)
(push 1)
(assert B68-F)
(set-info :status sat)
(check-sat)
(push 1)
(assert B69-F)
(set-info :status sat)
(check-sat)
(push 1)
(assert B57-F)
(set-info :status sat)
(check-sat)
(push 1)
(assert B58-F)
(set-info :status sat)
(check-sat)
(push 1)
(assert B53-F)
(set-info :status unsat)
(check-sat)
(pop 1)
(push 1)
(assert B72-F)
(set-info :status sat)
(check-sat)
(push 1)
(assert B54-F)
(set-info :status unsat)
(check-sat)
(pop 1)
(push 1)
(assert B70-F)
(set-info :status sat)
(check-sat)
(push 1)
(assert B66-F)
(set-info :status sat)
(check-sat)
(push 1)
(assert B73-F)
(set-info :status sat)
(check-sat)
(push 1)
(assert B3-F)
(set-info :status sat)
(check-sat)
(push 1)
(assert B60-F)
(set-info :status sat)
(check-sat)
(push 1)
(assert B59-F)
(set-info :status sat)
(check-sat)
(push 1)
(assert B51-F)
(set-info :status unsat)
(check-sat)
(pop 1)
(push 1)
(assert B46-F)
(set-info :status sat)
(check-sat)
(push 1)
(assert B77-F)
(set-info :status sat)
(check-sat)
(push 1)
(assert B76-F)
(set-info :status sat)
(check-sat)
(push 1)
(assert B65-F)
(set-info :status sat)
(check-sat)
(push 1)
(assert B71-F)
(set-info :status sat)
(check-sat)
(push 1)
(assert B61-F)
(set-info :status sat)
(check-sat)
(push 1)
(assert B64-F)
(set-info :status sat)
(check-sat)
(push 1)
(assert B67-F)
(set-info :status sat)
(check-sat)
(exit)

